\ Model opt
\ LP format - for model browsing. Use MPS format to capture full model detail.
Minimize
  147.1693554985166 x_0 + 144.2545675364111 x_1 + 142.8277499329677 x_2
   + 141.1821039866892 x_3 + 139.866455418578 x_4 + 137.7977914459934 x_5
   + 133.5326408090397 x_6 + 131.3040432398493 x_7 + 128.2275398261195 x_8
   + 126.8302821939909 x_9 + 118.7466377078596 x_10
   + 115.9317522391072 x_11 + 112.6385336022742 x_12
   + 108.561154073391 x_13 + 107.1368772518662 x_14
   + 106.1089369336249 x_15 + 104.8579163560698 x_16
   + 102.4924465503044 x_17 + 94.83951849200132 x_18
   + 93.76071545297251 x_19 + 90.94431860643546 x_20
   + 87.97042536981031 x_21 + 86.24242094604608 x_22
   + 84.92724731303664 x_23 + 82.42818921400375 x_24
   + 80.03646848330501 x_25 + 78.74969133163012 x_26
   + 76.35181852151624 x_27 + 74.40585588363763 x_28
   + 73.19327421414627 x_29 + 72.04666442874323 x_30
   + 67.71026017244519 x_31 + 66.05485266266584 x_32
   + 60.01125461707547 x_33 + 58.93823295832721 x_34
   + 55.56889811164785 x_35 + 53.39825478304985 x_36
   + 49.62774842031654 x_37 + 48.61903945162283 x_38
   + 45.47761214604697 x_39 + 43.71668627948561 x_40
   + 40.7854454537908 x_41 + 37.3210068950934 x_42 + 35.17572194848206 x_43
   + 33.67304284216999 x_44 + 32.42406156534705 x_45
   + 27.37403565626877 x_46 + 25.81031063918982 x_47
   + 24.14217689952393 x_48 + 23.06896115210064 x_49
   + 19.76082605593693 x_50 + 17.7413029528421 x_51
   + 16.36972378864928 x_52 + 14.34659841176331 x_53
   + 11.5469608481297 x_54 + 10.26923689707901 x_55
   + 6.384517495571835 x_56 + 4.492961707084135 x_57
   + 2.95519661116203 x_58 - 1.95176678344621 x_59 - 3.111821237796647 x_60
   - 4.413971509185515 x_61 - 6.973630817337657 x_62
   - 8.162061060139379 x_63 - 9.829483734953719 x_64
   - 12.25308155968296 x_65 - 13.56581166788669 x_66
   - 15.15374495343173 x_67 - 16.60148490159682 x_68
   - 18.19023338690167 x_69 - 21.95465321998616 x_70 - 25.02343887953 x_71
   - 26.95826160957075 x_72 - 30.99231325892117 x_73
   - 32.2844510914326 x_74 - 34.42053800107984 x_75 - 37.7430421071327 x_76
   - 38.75124737445277 x_77 - 40.74554388176152 x_78
   - 42.71083293715714 x_79 - 44.20519432531283 x_80
   - 47.55755796716735 x_81 - 52.36939225521066 x_82
   - 53.44438298333955 x_83 - 54.60520960738667 x_84
   - 57.25453149985884 x_85 - 58.48040838085234 x_86
   - 60.93444991118433 x_87 - 65.13108796152846 x_88
   - 71.4193743998507 x_89 - 72.53059918919786 x_90
   - 75.45463958647083 x_91 - 77.5481411061586 x_92 - 78.5487986485419 x_93
   - 81.66303896851117 x_94 - 82.67433291562423 x_95
   - 91.61516990718034 x_96 - 94.60150307016661 x_97
   - 95.68888007875246 x_98 - 97.79564454032453 x_99
   + 267166.0279021513 Constant + [ x_0 ^2 + x_1 ^2 + x_2 ^2 + x_3 ^2
   + x_4 ^2 + x_5 ^2 + x_6 ^2 + x_7 ^2 + x_8 ^2 + x_9 ^2 + x_10 ^2
   + x_11 ^2 + x_12 ^2 + x_13 ^2 + x_14 ^2 + x_15 ^2 + x_16 ^2 + x_17 ^2
   + x_18 ^2 + x_19 ^2 + x_20 ^2 + x_21 ^2 + x_22 ^2 + x_23 ^2 + x_24 ^2
   + x_25 ^2 + x_26 ^2 + x_27 ^2 + x_28 ^2 + x_29 ^2 + x_30 ^2 + x_31 ^2
   + x_32 ^2 + x_33 ^2 + x_34 ^2 + x_35 ^2 + x_36 ^2 + x_37 ^2 + x_38 ^2
   + x_39 ^2 + x_40 ^2 + x_41 ^2 + x_42 ^2 + x_43 ^2 + x_44 ^2 + x_45 ^2
   + x_46 ^2 + x_47 ^2 + x_48 ^2 + x_49 ^2 + x_50 ^2 + x_51 ^2 + x_52 ^2
   + x_53 ^2 + x_54 ^2 + x_55 ^2 + x_56 ^2 + x_57 ^2 + x_58 ^2 + x_59 ^2
   + x_60 ^2 + x_61 ^2 + x_62 ^2 + x_63 ^2 + x_64 ^2 + x_65 ^2 + x_66 ^2
   + x_67 ^2 + x_68 ^2 + x_69 ^2 + x_70 ^2 + x_71 ^2 + x_72 ^2 + x_73 ^2
   + x_74 ^2 + x_75 ^2 + x_76 ^2 + x_77 ^2 + x_78 ^2 + x_79 ^2 + x_80 ^2
   + x_81 ^2 + x_82 ^2 + x_83 ^2 + x_84 ^2 + x_85 ^2 + x_86 ^2 + x_87 ^2
   + x_88 ^2 + x_89 ^2 + x_90 ^2 + x_91 ^2 + x_92 ^2 + x_93 ^2 + x_94 ^2
   + x_95 ^2 + x_96 ^2 + x_97 ^2 + x_98 ^2 + x_99 ^2 ] / 2 
Subject To
 R0: - lam_0 + x_0 = 0
 R1: - 2 lam_0 + x_1 = 0
 R2: - 3 lam_0 + x_2 = 0
 R3: - 4 lam_0 + x_3 = 0
 R4: - 5 lam_0 + x_4 = 0
 R5: - 6 lam_0 + x_5 = 0
 R6: - 7 lam_0 + x_6 = 0
 R7: - 8 lam_0 + x_7 = 0
 R8: - 9 lam_0 + x_8 = 0
 R9: - 10 lam_0 + x_9 = 0
 R10: - 11 lam_0 + x_10 = 0
 R11: - 12 lam_0 + x_11 = 0
 R12: - 13 lam_0 + x_12 = 0
 R13: - 14 lam_0 + x_13 = 0
 R14: - 15 lam_0 + x_14 = 0
 R15: - 16 lam_0 + x_15 = 0
 R16: - 17 lam_0 + x_16 = 0
 R17: - 18 lam_0 + x_17 = 0
 R18: - 19 lam_0 + x_18 = 0
 R19: - 20 lam_0 + x_19 = 0
 R20: - 21 lam_0 + x_20 = 0
 R21: - 22 lam_0 + x_21 = 0
 R22: - 23 lam_0 + x_22 = 0
 R23: - 24 lam_0 + x_23 = 0
 R24: - 25 lam_0 + x_24 = 0
 R25: - 26 lam_0 + x_25 = 0
 R26: - 27 lam_0 + x_26 = 0
 R27: - 28 lam_0 + x_27 = 0
 R28: - 29 lam_0 + x_28 = 0
 R29: - 30 lam_0 + x_29 = 0
 R30: - 31 lam_0 + x_30 = 0
 R31: - 32 lam_0 + x_31 = 0
 R32: - 33 lam_0 + x_32 = 0
 R33: - 34 lam_0 + x_33 = 0
 R34: - 35 lam_0 + x_34 = 0
 R35: - 36 lam_0 + x_35 = 0
 R36: - 37 lam_0 + x_36 = 0
 R37: - 38 lam_0 + x_37 = 0
 R38: - 39 lam_0 + x_38 = 0
 R39: - 40 lam_0 + x_39 = 0
 R40: - 41 lam_0 + x_40 = 0
 R41: - 42 lam_0 + x_41 = 0
 R42: - 43 lam_0 + x_42 = 0
 R43: - 44 lam_0 + x_43 = 0
 R44: - 45 lam_0 + x_44 = 0
 R45: - 46 lam_0 + x_45 = 0
 R46: - 47 lam_0 + x_46 = 0
 R47: - 48 lam_0 + x_47 = 0
 R48: - 49 lam_0 + x_48 = 0
 R49: - 50 lam_0 + x_49 = 0
 R50: - 51 lam_0 + x_50 = 0
 R51: - 52 lam_0 + x_51 = 0
 R52: - 53 lam_0 + x_52 = 0
 R53: - 54 lam_0 + x_53 = 0
 R54: - 55 lam_0 + x_54 = 0
 R55: - 56 lam_0 + x_55 = 0
 R56: - 57 lam_0 + x_56 = 0
 R57: - 58 lam_0 + x_57 = 0
 R58: - 59 lam_0 + x_58 = 0
 R59: - 60 lam_0 + x_59 = 0
 R60: - 61 lam_0 + x_60 = 0
 R61: - 62 lam_0 + x_61 = 0
 R62: - 63 lam_0 + x_62 = 0
 R63: - 64 lam_0 + x_63 = 0
 R64: - 65 lam_0 + x_64 = 0
 R65: - 66 lam_0 + x_65 = 0
 R66: - 67 lam_0 + x_66 = 0
 R67: - 68 lam_0 + x_67 = 0
 R68: - 69 lam_0 + x_68 = 0
 R69: - 70 lam_0 + x_69 = 0
 R70: - 71 lam_0 + x_70 = 0
 R71: - 72 lam_0 + x_71 = 0
 R72: - 73 lam_0 + x_72 = 0
 R73: - 74 lam_0 + x_73 = 0
 R74: - 75 lam_0 + x_74 = 0
 R75: - 76 lam_0 + x_75 = 0
 R76: - 77 lam_0 + x_76 = 0
 R77: - 78 lam_0 + x_77 = 0
 R78: - 79 lam_0 + x_78 = 0
 R79: - 80 lam_0 + x_79 = 0
 R80: - 81 lam_0 + x_80 = 0
 R81: - 82 lam_0 + x_81 = 0
 R82: - 83 lam_0 + x_82 = 0
 R83: - 84 lam_0 + x_83 = 0
 R84: - 85 lam_0 + x_84 = 0
 R85: - 86 lam_0 + x_85 = 0
 R86: - 87 lam_0 + x_86 = 0
 R87: - 88 lam_0 + x_87 = 0
 R88: - 89 lam_0 + x_88 = 0
 R89: - 90 lam_0 + x_89 = 0
 R90: - 91 lam_0 + x_90 = 0
 R91: - 92 lam_0 + x_91 = 0
 R92: - 93 lam_0 + x_92 = 0
 R93: - 94 lam_0 + x_93 = 0
 R94: - 95 lam_0 + x_94 = 0
 R95: - 96 lam_0 + x_95 = 0
 R96: - 97 lam_0 + x_96 = 0
 R97: - 98 lam_0 + x_97 = 0
 R98: - 99 lam_0 + x_98 = 0
 R99: - 100 lam_0 + x_99 = 0
 R100: lam_0 = 1
Bounds
 x_0 free
 x_1 free
 x_2 free
 x_3 free
 x_4 free
 x_5 free
 x_6 free
 x_7 free
 x_8 free
 x_9 free
 x_10 free
 x_11 free
 x_12 free
 x_13 free
 x_14 free
 x_15 free
 x_16 free
 x_17 free
 x_18 free
 x_19 free
 x_20 free
 x_21 free
 x_22 free
 x_23 free
 x_24 free
 x_25 free
 x_26 free
 x_27 free
 x_28 free
 x_29 free
 x_30 free
 x_31 free
 x_32 free
 x_33 free
 x_34 free
 x_35 free
 x_36 free
 x_37 free
 x_38 free
 x_39 free
 x_40 free
 x_41 free
 x_42 free
 x_43 free
 x_44 free
 x_45 free
 x_46 free
 x_47 free
 x_48 free
 x_49 free
 x_50 free
 x_51 free
 x_52 free
 x_53 free
 x_54 free
 x_55 free
 x_56 free
 x_57 free
 x_58 free
 x_59 free
 x_60 free
 x_61 free
 x_62 free
 x_63 free
 x_64 free
 x_65 free
 x_66 free
 x_67 free
 x_68 free
 x_69 free
 x_70 free
 x_71 free
 x_72 free
 x_73 free
 x_74 free
 x_75 free
 x_76 free
 x_77 free
 x_78 free
 x_79 free
 x_80 free
 x_81 free
 x_82 free
 x_83 free
 x_84 free
 x_85 free
 x_86 free
 x_87 free
 x_88 free
 x_89 free
 x_90 free
 x_91 free
 x_92 free
 x_93 free
 x_94 free
 x_95 free
 x_96 free
 x_97 free
 x_98 free
 x_99 free
 Constant = 1
End
